100
1000
150
0 0
-34 15
-34 15
-34 15
-34 15
-34 15
-34 15
-34 15
-34 15
-34 15
-34 15
-34 15
-34 15
-34 15
-34 15
-34 15
-6 15
-6 15
-6 15
-6 15
-6 15
-6 15
-6 15
-6 15
-6 15
-6 15
-6 15
-6 15
-6 15
-6 15
-6 15
-24 1
-24 1
-24 1
-24 1
-24 1
-24 1
-24 1
-24 1
-24 1
-24 1
-24 1
-24 1
-24 1
-24 1
-24 1
38 -13
38 -13
38 -13
38 -13
38 -13
38 -13
38 -13
38 -13
38 -13
38 -13
38 -13
38 -13
38 -13
38 -13
38 -13
13 6
13 6
13 6
13 6
13 6
13 6
13 6
13 6
13 6
13 6
13 6
13 6
13 6
13 6
13 6
17 -11
20 -40
10 -15
-22 -28
-9 -9
-19 40
-6 34
1 -10
20 -1
-11 15
7 -22
33 -5
-1 37
7 -10
-8 -21
17 -11
20 -40
10 -15
-22 -28
-9 -9
-19 40
-6 34
1 -10
20 -1
-11 15
7 -22
33 -5
-1 37
7 -10
-8 -21
17 -11
20 -40
10 -15
-22 -28
-9 -9
-19 40
-6 34
1 -10
20 -1
-11 15
7 -22
33 -5
-1 37
7 -10
-8 -21
17 -11
20 -40
10 -15
-22 -28
-9 -9
-19 40
-6 34
1 -10
20 -1
-11 15
7 -22
33 -5
-1 37
7 -10
-8 -21
17 -11
20 -40
10 -15
-22 -28
-9 -9
-19 40
-6 34
1 -10
20 -1
-11 15
7 -22
33 -5
-1 37
7 -10
-8 -21
0 0 
53
54
51
60
56
51
57
53
53
55
60
54
52
56
56
55
53
59
60
53
59
59
52
53
60
56
52
52
59
54
52
54
52
53
57
54
55
52
54
59
57
56
59
60
59
53
56
52
51
51
59
53
52
55
55
59
56
57
59
55
59
54
57
52
56
51
54
56
59
59
51
57
54
56
55
53
54
51
60
56
51
57
53
53
55
60
54
52
56
56
55
53
59
60
53
59
59
52
53
60
56
52
52
59
54
52
54
52
53
57
54
55
52
54
59
57
56
59
60
59
53
56
52
51
51
59
53
52
55
55
59
56
57
59
55
59
54
57
52
56
51
54
56
59
59
51
57
54
56
55
